(set-logic QF_UF)
(declare-fun A0 () Bool)
(declare-fun A1 () Bool)
(declare-fun A2 () Bool)
(declare-fun A3 () Bool)
(declare-fun A4 () Bool)
(declare-fun A5 () Bool)
(declare-fun A6 () Bool)
(declare-fun A7 () Bool)
(declare-fun A8 () Bool)
(declare-fun A9 () Bool)
(declare-fun A10 () Bool)
(declare-fun A11 () Bool)
(declare-fun A12 () Bool)
(declare-fun A13 () Bool)
(declare-fun A14 () Bool)
(declare-fun A15 () Bool)
(declare-fun A16 () Bool)
(declare-fun A17 () Bool)
(declare-fun A18 () Bool)
(declare-fun A19 () Bool)
(declare-fun A20 () Bool)
(declare-fun A21 () Bool)
(declare-fun A22 () Bool)
(declare-fun A23 () Bool)
(declare-fun A24 () Bool)
(assert (let ((.def_0 (not A20))) (let ((.def_1 (and .def_0 A10))) (let ((.def_2 (not A3))) (let ((.def_3 (not A5))) (let ((.def_4 (or .def_3 .def_2))) (let ((.def_5 (not .def_4))) (let ((.def_6 (or .def_5 .def_1))) (let ((.def_7 (or A20 A1))) (let ((.def_8 (not .def_7))) (let ((.def_9 (not A24))) (let ((.def_10 (or .def_9 A0))) (let ((.def_11 (or .def_10 .def_8))) (let ((.def_12 (or .def_11 .def_6))) (let ((.def_13 (not A19))) (let ((.def_14 (and .def_9 .def_13))) (let ((.def_15 (not .def_14))) (let ((.def_16 (not A2))) (let ((.def_17 (not A23))) (let ((.def_18 (and .def_17 .def_16))) (let ((.def_19 (or .def_18 .def_15))) (let ((.def_20 (not .def_19))) (let ((.def_21 (and A11 A20))) (let ((.def_22 (not .def_21))) (let ((.def_23 (not A11))) (let ((.def_24 (and A2 .def_23))) (let ((.def_25 (not .def_24))) (let ((.def_26 (and .def_25 .def_22))) (let ((.def_27 (not .def_26))) (let ((.def_28 (and .def_27 .def_20))) (let ((.def_29 (or .def_28 .def_12))) (let ((.def_30 (not A1))) (let ((.def_31 (not A8))) (let ((.def_32 (or .def_31 .def_30))) (let ((.def_33 (or A21 A20))) (let ((.def_34 (not .def_33))) (let ((.def_35 (or .def_34 .def_32))) (let ((.def_36 (and A6 A13))) (let ((.def_37 (not .def_36))) (let ((.def_38 (or A3 A16))) (let ((.def_39 (not .def_38))) (let ((.def_40 (or .def_39 .def_37))) (let ((.def_41 (not .def_40))) (let ((.def_42 (or .def_41 .def_35))) (let ((.def_43 (not .def_42))) (let ((.def_44 (or .def_23 A8))) (let ((.def_45 (not .def_44))) (let ((.def_46 (not A7))) (let ((.def_47 (or A22 .def_46))) (let ((.def_48 (or .def_47 .def_45))) (let ((.def_49 (not .def_48))) (let ((.def_50 (not A22))) (let ((.def_51 (or .def_50 A16))) (let ((.def_52 (not .def_51))) (let ((.def_53 (or A15 A11))) (let ((.def_54 (or .def_53 .def_52))) (let ((.def_55 (not .def_54))) (let ((.def_56 (or .def_55 .def_49))) (let ((.def_57 (not .def_56))) (let ((.def_58 (and .def_57 .def_43))) (let ((.def_59 (or .def_58 .def_29))) (let ((.def_60 (not .def_59))) (let ((.def_61 (and .def_31 A0))) (let ((.def_62 (not .def_61))) (let ((.def_63 (or A18 .def_50))) (let ((.def_64 (not .def_63))) (let ((.def_65 (and .def_64 .def_62))) (let ((.def_66 (and A19 A14))) (let ((.def_67 (not .def_66))) (let ((.def_68 (and A22 A13))) (let ((.def_69 (not .def_68))) (let ((.def_70 (or .def_69 .def_67))) (let ((.def_71 (and .def_70 .def_65))) (let ((.def_72 (or A11 A3))) (let ((.def_73 (or A2 A3))) (let ((.def_74 (and .def_73 .def_72))) (let ((.def_75 (not .def_74))) (let ((.def_76 (not A18))) (let ((.def_77 (or A24 .def_76))) (let ((.def_78 (or A5 A5))) (let ((.def_79 (or .def_78 .def_77))) (let ((.def_80 (not .def_79))) (let ((.def_81 (= .def_80 .def_75))) (let ((.def_82 (and .def_81 .def_71))) (let ((.def_83 (not A10))) (let ((.def_84 (not A21))) (let ((.def_85 (or .def_84 .def_83))) (let ((.def_86 (or .def_0 .def_84))) (let ((.def_87 (not .def_86))) (let ((.def_88 (or .def_87 .def_85))) (let ((.def_89 (not A13))) (let ((.def_90 (and .def_13 .def_89))) (let ((.def_91 (not .def_90))) (let ((.def_92 (or .def_76 .def_30))) (let ((.def_93 (or .def_92 .def_91))) (let ((.def_94 (= .def_93 .def_88))) (let ((.def_95 (and A13 A23))) (let ((.def_96 (not .def_95))) (let ((.def_97 (not A15))) (let ((.def_98 (or .def_97 .def_30))) (let ((.def_99 (not .def_98))) (let ((.def_100 (or .def_99 .def_96))) (let ((.def_101 (not .def_100))) (let ((.def_102 (or A9 .def_31))) (let ((.def_103 (not .def_102))) (let ((.def_104 (= .def_30 A23))) (let ((.def_105 (not .def_104))) (let ((.def_106 (or .def_105 .def_103))) (let ((.def_107 (not .def_106))) (let ((.def_108 (or .def_107 .def_101))) (let ((.def_109 (and .def_108 .def_94))) (let ((.def_110 (and .def_109 .def_82))) (let ((.def_111 (not .def_110))) (let ((.def_112 (or .def_111 .def_60))) (let ((.def_113 (not A16))) (let ((.def_114 (and A21 .def_113))) (let ((.def_115 (not .def_114))) (let ((.def_116 (not A9))) (let ((.def_117 (and .def_116 A0))) (let ((.def_118 (or .def_117 .def_115))) (let ((.def_119 (not .def_118))) (let ((.def_120 (and A16 .def_30))) (let ((.def_121 (not .def_120))) (let ((.def_122 (or A19 .def_76))) (let ((.def_123 (and .def_122 .def_121))) (let ((.def_124 (and .def_123 .def_119))) (let ((.def_125 (not .def_124))) (let ((.def_126 (and A20 A15))) (let ((.def_127 (not A6))) (let ((.def_128 (or .def_127 A10))) (let ((.def_129 (or .def_128 .def_126))) (let ((.def_130 (not .def_129))) (let ((.def_131 (and A10 A17))) (let ((.def_132 (not .def_131))) (let ((.def_133 (or .def_30 .def_17))) (let ((.def_134 (or .def_133 .def_132))) (let ((.def_135 (not .def_134))) (let ((.def_136 (or .def_135 .def_130))) (let ((.def_137 (not .def_136))) (let ((.def_138 (and .def_137 .def_125))) (let ((.def_139 (not .def_138))) (let ((.def_140 (or .def_50 A23))) (let ((.def_141 (not .def_140))) (let ((.def_142 (and .def_89 .def_16))) (let ((.def_143 (or .def_142 .def_141))) (let ((.def_144 (not A0))) (let ((.def_145 (and .def_97 .def_144))) (let ((.def_146 (not .def_145))) (let ((.def_147 (or .def_144 A19))) (let ((.def_148 (not .def_147))) (let ((.def_149 (and .def_148 .def_146))) (let ((.def_150 (not .def_149))) (let ((.def_151 (and .def_150 .def_143))) (let ((.def_152 (not .def_151))) (let ((.def_153 (= A2 .def_30))) (let ((.def_154 (not .def_153))) (let ((.def_155 (or A14 A16))) (let ((.def_156 (not .def_155))) (let ((.def_157 (and .def_156 .def_154))) (let ((.def_158 (or .def_2 A22))) (let ((.def_159 (or A4 A15))) (let ((.def_160 (and .def_159 .def_158))) (let ((.def_161 (not .def_160))) (let ((.def_162 (or .def_161 .def_157))) (let ((.def_163 (and .def_162 .def_152))) (let ((.def_164 (not .def_163))) (let ((.def_165 (or .def_164 .def_139))) (let ((.def_166 (and A22 A7))) (let ((.def_167 (not A12))) (let ((.def_168 (or .def_167 A14))) (let ((.def_169 (or .def_168 .def_166))) (let ((.def_170 (and .def_2 .def_83))) (let ((.def_171 (not .def_170))) (let ((.def_172 (and A9 A14))) (let ((.def_173 (or .def_172 .def_171))) (let ((.def_174 (not .def_173))) (let ((.def_175 (and .def_174 .def_169))) (let ((.def_176 (and A2 A12))) (let ((.def_177 (or .def_0 A15))) (let ((.def_178 (or .def_177 .def_176))) (let ((.def_179 (not .def_178))) (let ((.def_180 (or .def_31 A2))) (let ((.def_181 (and A23 A7))) (let ((.def_182 (not .def_181))) (let ((.def_183 (or .def_182 .def_180))) (let ((.def_184 (or .def_183 .def_179))) (let ((.def_185 (or .def_184 .def_175))) (let ((.def_186 (not .def_185))) (let ((.def_187 (or .def_144 A22))) (let ((.def_188 (not .def_187))) (let ((.def_189 (and .def_97 A2))) (let ((.def_190 (not .def_189))) (let ((.def_191 (= .def_190 .def_188))) (let ((.def_192 (not .def_191))) (let ((.def_193 (and .def_16 .def_9))) (let ((.def_194 (not .def_193))) (let ((.def_195 (and .def_144 .def_3))) (let ((.def_196 (not .def_195))) (let ((.def_197 (or .def_196 .def_194))) (let ((.def_198 (not .def_197))) (let ((.def_199 (and .def_198 .def_192))) (let ((.def_200 (not .def_199))) (let ((.def_201 (and .def_13 A0))) (let ((.def_202 (or .def_13 .def_116))) (let ((.def_203 (and .def_202 .def_201))) (let ((.def_204 (and A18 .def_30))) (let ((.def_205 (or A10 A6))) (let ((.def_206 (and .def_205 .def_204))) (let ((.def_207 (not .def_206))) (let ((.def_208 (= .def_207 .def_203))) (let ((.def_209 (or .def_208 .def_200))) (let ((.def_210 (or .def_209 .def_186))) (let ((.def_211 (not .def_210))) (let ((.def_212 (or .def_211 .def_165))) (let ((.def_213 (and .def_212 .def_112))) (let ((.def_214 (not .def_213))) (let ((.def_215 (and .def_0 A5))) (let ((.def_216 (not .def_215))) (let ((.def_217 (and .def_216 .def_95))) (let ((.def_218 (not .def_217))) (let ((.def_219 (or A23 .def_17))) (let ((.def_220 (not .def_219))) (let ((.def_221 (and .def_113 A13))) (let ((.def_222 (and .def_221 .def_220))) (let ((.def_223 (not .def_222))) (let ((.def_224 (and .def_223 .def_218))) (let ((.def_225 (or .def_9 A17))) (let ((.def_226 (not .def_225))) (let ((.def_227 (or .def_89 A20))) (let ((.def_228 (not .def_227))) (let ((.def_229 (or .def_228 .def_226))) (let ((.def_230 (and A3 .def_2))) (let ((.def_231 (and A2 .def_0))) (let ((.def_232 (and .def_231 .def_230))) (let ((.def_233 (not .def_232))) (let ((.def_234 (and .def_233 .def_229))) (let ((.def_235 (not .def_234))) (let ((.def_236 (and .def_235 .def_224))) (let ((.def_237 (or A18 A10))) (let ((.def_238 (not A14))) (let ((.def_239 (or .def_30 .def_238))) (let ((.def_240 (and .def_239 .def_237))) (let ((.def_241 (not .def_240))) (let ((.def_242 (and .def_23 .def_127))) (let ((.def_243 (not .def_242))) (let ((.def_244 (or .def_46 A21))) (let ((.def_245 (not .def_244))) (let ((.def_246 (and .def_245 .def_243))) (let ((.def_247 (or .def_246 .def_241))) (let ((.def_248 (and .def_97 .def_84))) (let ((.def_249 (and .def_248 .def_120))) (let ((.def_250 (and A14 .def_84))) (let ((.def_251 (or A4 .def_238))) (let ((.def_252 (and .def_251 .def_250))) (let ((.def_253 (not .def_252))) (let ((.def_254 (= .def_253 .def_249))) (let ((.def_255 (and .def_254 .def_247))) (let ((.def_256 (or .def_255 .def_236))) (let ((.def_257 (not A17))) (let ((.def_258 (and A8 .def_257))) (let ((.def_259 (= .def_2 .def_113))) (let ((.def_260 (or .def_259 .def_258))) (let ((.def_261 (not .def_260))) (let ((.def_262 (and .def_9 A23))) (let ((.def_263 (and .def_31 A20))) (let ((.def_264 (not .def_263))) (let ((.def_265 (and .def_264 .def_262))) (let ((.def_266 (not .def_265))) (let ((.def_267 (or .def_266 .def_261))) (let ((.def_268 (not .def_267))) (let ((.def_269 (and .def_167 A10))) (let ((.def_270 (or .def_76 .def_17))) (let ((.def_271 (= .def_270 .def_269))) (let ((.def_272 (not .def_271))) (let ((.def_273 (= A11 .def_9))) (let ((.def_274 (not .def_273))) (let ((.def_275 (and A16 A21))) (let ((.def_276 (and .def_275 .def_274))) (let ((.def_277 (and .def_276 .def_272))) (let ((.def_278 (not .def_277))) (let ((.def_279 (= .def_278 .def_268))) (let ((.def_280 (not .def_279))) (let ((.def_281 (and A13 A10))) (let ((.def_282 (or A23 A22))) (let ((.def_283 (not .def_282))) (let ((.def_284 (or .def_283 .def_281))) (let ((.def_285 (not .def_284))) (let ((.def_286 (or A0 .def_16))) (let ((.def_287 (or A1 A18))) (let ((.def_288 (or .def_287 .def_286))) (let ((.def_289 (not .def_288))) (let ((.def_290 (or .def_289 .def_285))) (let ((.def_291 (or .def_257 .def_2))) (let ((.def_292 (= A5 A3))) (let ((.def_293 (or .def_292 .def_291))) (let ((.def_294 (= .def_31 A13))) (let ((.def_295 (not .def_294))) (let ((.def_296 (or A19 .def_46))) (let ((.def_297 (and .def_296 .def_295))) (let ((.def_298 (not .def_297))) (let ((.def_299 (and .def_298 .def_293))) (let ((.def_300 (not .def_299))) (let ((.def_301 (and .def_300 .def_290))) (let ((.def_302 (not .def_301))) (let ((.def_303 (or .def_302 .def_280))) (let ((.def_304 (or .def_303 .def_256))) (let ((.def_305 (not .def_304))) (let ((.def_306 (and .def_2 .def_89))) (let ((.def_307 (not .def_306))) (let ((.def_308 (= .def_9 .def_127))) (let ((.def_309 (and .def_308 .def_307))) (let ((.def_310 (not .def_309))) (let ((.def_311 (and A17 .def_76))) (let ((.def_312 (= A9 A16))) (let ((.def_313 (not .def_312))) (let ((.def_314 (and .def_313 .def_311))) (let ((.def_315 (not .def_314))) (let ((.def_316 (and .def_315 .def_310))) (let ((.def_317 (not .def_316))) (let ((.def_318 (and A10 A21))) (let ((.def_319 (and .def_84 .def_16))) (let ((.def_320 (and .def_319 .def_318))) (let ((.def_321 (not .def_320))) (let ((.def_322 (and .def_84 A5))) (let ((.def_323 (not .def_322))) (let ((.def_324 (or .def_323 .def_68))) (let ((.def_325 (and .def_324 .def_321))) (let ((.def_326 (or .def_325 .def_317))) (let ((.def_327 (not .def_326))) (let ((.def_328 (= A16 .def_127))) (let ((.def_329 (and .def_91 .def_328))) (let ((.def_330 (and .def_167 A6))) (let ((.def_331 (not .def_330))) (let ((.def_332 (or .def_13 A7))) (let ((.def_333 (= .def_332 .def_331))) (let ((.def_334 (and .def_333 .def_329))) (let ((.def_335 (not .def_334))) (let ((.def_336 (and A3 A7))) (let ((.def_337 (not .def_336))) (let ((.def_338 (= .def_238 A14))) (let ((.def_339 (and .def_338 .def_337))) (let ((.def_340 (not .def_339))) (let ((.def_341 (and .def_113 .def_50))) (let ((.def_342 (or A20 A2))) (let ((.def_343 (or .def_342 .def_341))) (let ((.def_344 (and .def_343 .def_340))) (let ((.def_345 (or .def_344 .def_335))) (let ((.def_346 (or .def_345 .def_327))) (let ((.def_347 (not .def_346))) (let ((.def_348 (or A1 A6))) (let ((.def_349 (not .def_348))) (let ((.def_350 (or A23 A0))) (let ((.def_351 (= .def_350 .def_349))) (let ((.def_352 (not .def_351))) (let ((.def_353 (and A14 A3))) (let ((.def_354 (not .def_353))) (let ((.def_355 (and .def_23 .def_31))) (let ((.def_356 (not .def_355))) (let ((.def_357 (= .def_356 .def_354))) (let ((.def_358 (and .def_357 .def_352))) (let ((.def_359 (not .def_358))) (let ((.def_360 (or A9 .def_9))) (let ((.def_361 (not .def_360))) (let ((.def_362 (or A8 A7))) (let ((.def_363 (not .def_362))) (let ((.def_364 (or .def_363 .def_361))) (let ((.def_365 (not .def_364))) (let ((.def_366 (and .def_17 .def_76))) (let ((.def_367 (or A12 .def_113))) (let ((.def_368 (and .def_367 .def_366))) (let ((.def_369 (not .def_368))) (let ((.def_370 (and .def_369 .def_365))) (let ((.def_371 (not .def_370))) (let ((.def_372 (and .def_371 .def_359))) (let ((.def_373 (or .def_238 A17))) (let ((.def_374 (not .def_373))) (let ((.def_375 (and .def_127 .def_23))) (let ((.def_376 (not .def_375))) (let ((.def_377 (or .def_376 .def_374))) (let ((.def_378 (not .def_377))) (let ((.def_379 (or A0 .def_167))) (let ((.def_380 (not .def_379))) (let ((.def_381 (and .def_257 .def_257))) (let ((.def_382 (not .def_381))) (let ((.def_383 (or .def_382 .def_380))) (let ((.def_384 (and .def_383 .def_378))) (let ((.def_385 (and A20 .def_30))) (let ((.def_386 (or .def_9 A20))) (let ((.def_387 (or .def_386 .def_385))) (let ((.def_388 (and A24 .def_17))) (let ((.def_389 (and .def_167 A13))) (let ((.def_390 (not .def_389))) (let ((.def_391 (and .def_390 .def_388))) (let ((.def_392 (not .def_391))) (let ((.def_393 (and .def_392 .def_387))) (let ((.def_394 (not .def_393))) (let ((.def_395 (and .def_394 .def_384))) (let ((.def_396 (or .def_395 .def_372))) (let ((.def_397 (or .def_396 .def_347))) (let ((.def_398 (not .def_397))) (let ((.def_399 (and .def_398 .def_305))) (let ((.def_400 (and .def_399 .def_214))) (let ((.def_401 (not .def_400))) .def_401)))))))))))))))))))))))))))))))))))))))))))))))))))))))))))))))))))))))))))))))))))))))))))))))))))))))))))))))))))))))))))))))))))))))))))))))))))))))))))))))))))))))))))))))))))))))))))))))))))))))))))))))))))))))))))))))))))))))))))))))))))))))))))))))))))))))))))))))))))))))))))))))))))))))))))))))))))))))))))))))))))))))))))))))))))))))))))))))))))))))))))))))))))))))))))))))))))))))))))))))))))
(check-sat)
